63
Properties=species:S:1:pos:R:3 00001681_LB-C=T Eopt=T -1777.971032=T pbc="F F F"
N        2.84567500      -0.05827700      -0.00869900
C        1.64690100      -0.58734400       0.39776100
N        0.86212900       0.51283300       0.25492500
N        8.74989700      -3.45390800      -0.19814600
C        7.74365500      -2.87108500      -0.16557100
N        2.81957700       1.29085500      -0.40333900
C        4.08242500      -0.75746100      -0.04940800
C       -2.18138000      -2.10254800       1.91943100
C       -3.34740800      -1.09813100       1.79274000
C       -4.53554900      -1.55251200       2.66753700
Si      -3.83348100      -0.72757100      -0.01510100
O       -2.70686800       0.34046700      -0.67403100
C       -1.32255000       0.08167800      -0.76939400
C       -0.57142000       0.77141700       0.38094000
C       -0.63044700       2.32147300       0.31164500
C        0.67797100       2.77499900      -0.41724400
C        1.24684200       4.08350000       0.13148000
F        2.35803100       4.45923700      -0.53924500
F        0.33247800       5.08228900       0.00648600
F        1.56797800       3.98999900       1.44590100
C        1.57011400       1.58863300      -0.22164400
C        5.25523200      -0.10100700      -0.45012400
C        6.45835900      -0.79803600      -0.48758400
C        6.50695700      -2.15653200      -0.12580900
C        5.32289800      -2.80541600       0.27641600
C        4.11980500      -2.11304400       0.31483200
C       -3.78718600      -2.31155600      -1.06439600
C       -4.17184900      -2.04048100      -2.53382500
C       -4.61193400      -3.48384100      -0.49440800
C       -5.47369900       0.22931300      -0.09309500
C       -5.58667900       1.14285200      -1.33216300
C       -6.71120800      -0.68899100      -0.00217900
H       -1.89514800      -2.22689500       2.97404900
H       -1.28453900      -1.79335200       1.36882900
H       -2.47525100      -3.08940100       1.54021900
H       -3.00571600      -0.12802900       2.19384700
H       -4.20922900      -1.69957200       3.70753600
H       -4.94723100      -2.50660200       2.31387600
H       -5.34729400      -0.81518100       2.66748900
H       -1.08565100      -0.99318000      -0.74388100
H       -0.95290200       0.48093500      -1.72784600
H       -0.94304200       0.39135200       1.33553100
H       -1.52971400       2.65841700      -0.20771600
H       -0.63851600       2.73601100       1.32410500
H        0.50214500       2.95003300      -1.48614700
H        5.21790400       0.94624200      -0.72705600
H        7.36838600      -0.29182100      -0.79703900
H        5.35473800      -3.85429600       0.55762700
H        3.20228800      -2.60212100       0.62385800
H       -2.72895100      -2.62372300      -1.05182200
H       -3.58089200      -1.22303200      -2.96613700
H       -4.01470100      -2.93982800      -3.14728500
H       -5.23196800      -1.76653000      -2.61475500
H       -4.31448900      -3.73601100       0.53018700
H       -5.68224700      -3.24624300      -0.48384500
H       -4.47688200      -4.38186100      -1.11492900
H       -5.47322300       0.87774400       0.79964900
H       -5.60750600       0.54890400      -2.25499500
H       -4.74345400       1.83889500      -1.40123400
H       -6.51904200       1.72501800      -1.28928400
H       -6.79158100      -1.31800100      -0.89774600
H       -6.68111500      -1.35021400       0.87158900
H       -7.62791600      -0.08491800       0.05988900
