103
Properties=species:S:1:pos:R:3 00001918_LB-C=T Eopt=T -1632.438000=T pbc="F F F"
N       -1.06945900       0.08907100       0.35177900
C       -0.01752600      -0.09753500      -0.46729100
N        1.06546800       0.30389700       0.22456600
C       -6.58710200      -1.02131600      -2.87979100
C       -6.50805400      -0.40545400      -1.46989300
C       -7.35128000      -1.22435200      -0.47373500
C       -5.07003700      -0.27444200      -1.00102300
C       -4.25895500      -1.40493700      -0.84769600
C       -2.94021500      -1.31950300      -0.39660400
C       -2.10104700      -2.57830500      -0.23878500
C       -2.87288200      -3.74359500       0.40457900
C       -1.51006600      -2.99676900      -1.59954900
C       -2.41387800      -0.03934400      -0.11317600
C        2.39071200       0.06012300      -0.24930200
C        2.89357100       0.79661000      -1.34189400
C        2.05081900       1.84384700      -2.05346200
C        2.83637100       3.12098000      -2.39906600
C        1.40564000       1.23870700      -3.31599700
C        4.19649400       0.52629100      -1.77487900
C        5.00987200      -0.42118900      -1.14844500
C        6.42709400      -0.67484900      -1.63046700
C        6.60157800      -2.12194100      -2.12974700
C        7.46027200      -0.35253800      -0.53413200
C        4.47783600      -1.13675300      -0.07291700
C        3.17103300      -0.93055700       0.37865600
C        2.62289200      -1.81018100       1.49313100
C        2.68377400      -3.30066300       1.10886800
C        3.35317300      -1.55596000       2.82446100
C        0.76802500       0.92297600       1.55748000
C        1.03889200       2.44718000       1.60039100
C        2.53529100       2.76883200       1.46450000
C        0.53123500       3.06668500       2.91459100
C       -0.71670800       0.52805500       1.74150000
C       -0.96636400      -0.56355300       2.81157500
C       -0.39729100      -0.14547700       4.17912500
C       -2.46289700      -0.86527500       2.98632200
C       -3.18970200       1.11943300      -0.29414000
C       -2.62288700       2.51664300      -0.08933900
C       -3.30171600       3.23434000       1.09176100
C       -2.72781700       3.35691300      -1.37616100
C       -4.51696400       0.97388300      -0.71804700
H       -6.18006800      -2.04093100      -2.87558700
H       -7.63027400      -1.07189500      -3.21949500
H       -6.01013900      -0.42874900      -3.60047100
H       -6.93182400       0.60815800      -1.51887900
H       -6.96398400      -2.24875900      -0.39660000
H       -8.39627300      -1.27860100      -0.80728500
H       -7.32423200      -0.77485400       0.52676400
H       -4.67381500      -2.38397400      -1.07476200
H       -1.25958100      -2.33465700       0.41868800
H       -2.18703500      -4.57992100       0.59212300
H       -3.66879600      -4.11150300      -0.25550700
H       -3.32889200      -3.44554800       1.35700100
H       -2.31781100      -3.22596000      -2.30849000
H       -0.89414000      -2.18509800      -2.00163000
H       -0.88712700      -3.89475700      -1.48306700
H        1.23663400       2.12748800      -1.37787200
H        2.15093000       3.87474100      -2.80776000
H        3.60462200       2.92697000      -3.15832900
H        3.32917300       3.54122800      -1.51336800
H        0.78123100       0.38234400      -3.03926700
H        2.18416700       0.90964800      -4.01822400
H        0.78068000       1.98944100      -3.81983100
H        4.60019400       1.07991600      -2.62042300
H        6.61165100       0.00011900      -2.47863500
H        7.61926800      -2.27699300      -2.51242700
H        5.88599000      -2.35078100      -2.92905500
H        6.43376700      -2.83267300      -1.30983800
H        7.36143000       0.68579900      -0.19383900
H        7.31501100      -1.00992400       0.33331500
H        8.48099800      -0.50436400      -0.90997700
H        5.08614800      -1.89687200       0.41334900
H        1.56610300      -1.56827600       1.63389700
H        3.72146800      -3.62955200       0.97015200
H        2.13938500      -3.48023900       0.17391500
H        2.23473900      -3.91396300       1.90177500
H        4.41646900      -1.81400000       2.73493500
H        3.28849200      -0.49964300       3.11580000
H        2.91774900      -2.16706100       3.62634900
H        1.40355200       0.45368700       2.31413600
H        0.49546400       2.90249900       0.75947100
H        3.09949100       2.26332200       2.26124500
H        2.69659600       3.84939700       1.57144500
H        2.95081700       2.45242200       0.50777100
H        1.03316800       2.59963700       3.77268500
H       -0.54934700       2.95699300       3.05278700
H        0.76448400       4.13870300       2.93085000
H       -1.33089700       1.39442500       2.00401900
H       -0.45258500      -1.47669900       2.47715000
H       -0.61833800      -0.92139400       4.92277700
H        0.68693200       0.00624400       4.16580000
H       -0.86752300       0.78806200       4.51638200
H       -2.99951800       0.05438300       3.26005500
H       -2.60548300      -1.59185000       3.79676300
H       -2.92228300      -1.26447000       2.08202300
H       -1.55705700       2.42487700       0.13660800
H       -2.85233100       4.22357700       1.25164000
H       -4.37276600       3.37153900       0.89392200
H       -3.20388100       2.65257100       2.01743600
H       -3.77615500       3.51305600      -1.66029000
H       -2.21832300       2.85451700      -2.20731300
H       -2.26564000       4.34147200      -1.22290400
H       -5.12986200       1.86387700      -0.85472500
