44
Properties=species:S:1:pos:R:3 00004204_LB-C=T Eopt=T -1095.801937=T pbc="F F F"
N       -1.31044000      -0.89325200       0.87624500
C       -0.14015500      -0.55335900       1.51722700
N        0.80358000      -1.05297500       0.66317500
C       -3.46428400      -1.75835500       1.73184900
C       -2.64443100      -0.51382200       1.37554400
C       -3.31047900       0.46309800       0.40690700
C       -2.58081900       1.58305400      -0.02261500
C       -3.14902700       2.51501300      -0.89033800
C       -4.46173800       2.34218300      -1.34423400
C       -5.19494700       1.23198100      -0.92219100
C       -4.62156900       0.29761500      -0.05215800
C        0.27779200      -1.66306300      -0.47615400
C       -1.06409200      -1.54494700      -0.31789300
F       -2.04909500      -1.98032200      -1.11335200
C        1.17037100      -2.32140700      -1.47813800
O        2.44658000      -1.67971400      -1.50009800
C        3.06801000      -1.67975100      -0.20917400
C        4.38509900      -0.89513700      -0.34303100
C        3.96985900       0.53421500      -0.06999400
C        4.63533600       1.72079500      -0.37380000
C        4.03993800       2.93897500      -0.02127900
C        2.79927400       2.96504700       0.62847200
C        2.13327300       1.77250800       0.93854500
C        2.73075100       0.56778700       0.57939900
C        2.24042100      -0.84749200       0.82143700
H       -2.88992800      -2.38063600       2.42652100
H       -4.40083300      -1.46339700       2.21849000
H       -3.70485100      -2.34717700       0.84013100
H       -2.41680700       0.02812000       2.30137300
H       -1.55724300       1.71098000       0.32418400
H       -2.56781100       3.37586800      -1.21437900
H       -4.90660900       3.06677800      -2.02290200
H       -6.21483200       1.08589200      -1.27205600
H       -5.20385600      -0.56456000       0.26064000
H        0.75567600      -2.24614100      -2.48922600
H        1.30644400      -3.39358500      -1.23530800
H        3.20559400      -2.72045200       0.12887500
H        4.83178100      -1.04717700      -1.33245000
H        5.10473600      -1.24946600       0.41040300
H        5.59484300       1.70530000      -0.88818700
H        4.54327100       3.87375000      -0.25985800
H        2.34975900       3.91984300       0.89339500
H        1.17113800       1.76764700       1.44616700
H        2.50525300      -1.16699900       1.83891700
